;; translated from ./bv/nested5.c.vmt
;; original benchmark available at: https://es-static.fbk.eu/people/griggio/ic3ia/index.html
;; author: Alberto Griggio <griggio@fbk.eu>
(set-logic HORN)
(declare-fun state (Bool Bool Bool (_ BitVec 32) (_ BitVec 32) (_ BitVec 32) (_ BitVec 32) (_ BitVec 32)) Bool)
(assert (forall ((|.PC.0.next| Bool) (|.PC.1.next| Bool) (|.PC.2.next| Bool) (|__RET__$main.next| (_ BitVec 32)) (|__RET__$main| (_ BitVec 32)) (|j__3$main.next| (_ BitVec 32)) (|j__3$main| (_ BitVec 32)) (|k__5$main.next| (_ BitVec 32)) (|k__5$main| (_ BitVec 32)) (|n__7$main| (_ BitVec 32)) (|n__7$main.next| (_ BitVec 32)) (|i__1$main| (_ BitVec 32)) (|i__1$main.next| (_ BitVec 32)) (|__NONDET_INLINE_INIT__8__7$main#0| (_ BitVec 32)) (|.PC.2| Bool) (|.PC.1| Bool) (|.PC.0| Bool)) (=> (let ((.def_15 (not .PC.2)))
(let ((.def_12 (not .PC.1)))
(let ((.def_10 (not .PC.0)))
(let ((.def_13 (and .def_10 .def_12)))
(let ((.def_16 (and .def_13 .def_15)))
.def_16))))) (state |.PC.0| |.PC.1| |.PC.2| |j__3$main| |__RET__$main| |k__5$main| |n__7$main| |i__1$main|))))
(assert (forall ((|.PC.0.next| Bool) (|.PC.1.next| Bool) (|.PC.2.next| Bool) (|__RET__$main.next| (_ BitVec 32)) (|__RET__$main| (_ BitVec 32)) (|j__3$main.next| (_ BitVec 32)) (|j__3$main| (_ BitVec 32)) (|k__5$main.next| (_ BitVec 32)) (|k__5$main| (_ BitVec 32)) (|n__7$main| (_ BitVec 32)) (|n__7$main.next| (_ BitVec 32)) (|i__1$main| (_ BitVec 32)) (|i__1$main.next| (_ BitVec 32)) (|__NONDET_INLINE_INIT__8__7$main#0| (_ BitVec 32)) (|.PC.2| Bool) (|.PC.1| Bool) (|.PC.0| Bool)) (=> (and (state |.PC.0| |.PC.1| |.PC.2| |j__3$main| |__RET__$main| |k__5$main| |n__7$main| |i__1$main|) (let ((.def_10 (not .PC.0)))
(let ((.def_136 (and .def_10 .PC.1)))
(let ((.def_137 (and .PC.2 .def_136)))
(let ((.def_84 (not .PC.0.next)))
(let ((.def_131 (and .PC.1.next .def_84)))
(let ((.def_132 (and .PC.2.next .def_131)))
(let ((.def_138 (and .def_132 .def_137)))
(let ((.def_30 (= __RET__$main __RET__$main.next)))
(let ((.def_26 (= j__3$main j__3$main.next)))
(let ((.def_127 (and .def_26 .def_30)))
(let ((.def_34 (= k__5$main k__5$main.next)))
(let ((.def_128 (and .def_34 .def_127)))
(let ((.def_54 (= n__7$main.next n__7$main)))
(let ((.def_129 (and .def_54 .def_128)))
(let ((.def_56 (= i__1$main.next i__1$main)))
(let ((.def_130 (and .def_56 .def_129)))
(let ((.def_133 (and .def_130 .def_132)))
(let ((.def_12 (not .PC.1)))
(let ((.def_45 (and .PC.0 .def_12)))
(let ((.def_126 (and .PC.2 .def_45)))
(let ((.def_134 (and .def_126 .def_133)))
(let ((.def_116 (bvadd (_ bv1 32) k__5$main)))
(let ((.def_117 (= k__5$main.next .def_116)))
(let ((.def_103 (bvslt k__5$main i__1$main)))
(let ((.def_114 (not .def_103)))
(let ((.def_90 (bvslt k__5$main n__7$main)))
(let ((.def_115 (and .def_90 .def_114)))
(let ((.def_118 (and .def_115 .def_117)))
(let ((.def_119 (and .def_26 .def_118)))
(let ((.def_120 (and .def_30 .def_119)))
(let ((.def_121 (and .def_54 .def_120)))
(let ((.def_122 (and .def_56 .def_121)))
(let ((.def_39 (not .PC.1.next)))
(let ((.def_85 (and .def_39 .def_84)))
(let ((.def_86 (and .PC.2.next .def_85)))
(let ((.def_123 (and .def_86 .def_122)))
(let ((.def_13 (and .def_10 .def_12)))
(let ((.def_100 (and .def_13 .PC.2)))
(let ((.def_124 (and .def_100 .def_123)))
(let ((.def_41 (and .def_39 .PC.0.next)))
(let ((.def_110 (and .PC.2.next .def_41)))
(let ((.def_104 (and .def_90 .def_103)))
(let ((.def_105 (and .def_26 .def_104)))
(let ((.def_106 (and .def_30 .def_105)))
(let ((.def_107 (and .def_34 .def_106)))
(let ((.def_108 (and .def_54 .def_107)))
(let ((.def_109 (and .def_56 .def_108)))
(let ((.def_111 (and .def_109 .def_110)))
(let ((.def_112 (and .def_100 .def_111)))
(let ((.def_92 (bvadd (_ bv1 32) j__3$main)))
(let ((.def_93 (= j__3$main.next .def_92)))
(let ((.def_91 (not .def_90)))
(let ((.def_94 (and .def_91 .def_93)))
(let ((.def_95 (and .def_30 .def_94)))
(let ((.def_96 (and .def_34 .def_95)))
(let ((.def_97 (and .def_54 .def_96)))
(let ((.def_98 (and .def_56 .def_97)))
(let ((.def_58 (and .PC.1.next .PC.0.next)))
(let ((.def_37 (not .PC.2.next)))
(let ((.def_59 (and .def_37 .def_58)))
(let ((.def_99 (and .def_59 .def_98)))
(let ((.def_101 (and .def_99 .def_100)))
(let ((.def_78 (= j__3$main k__5$main.next)))
(let ((.def_63 (bvslt j__3$main n__7$main)))
(let ((.def_79 (and .def_63 .def_78)))
(let ((.def_80 (and .def_26 .def_79)))
(let ((.def_81 (and .def_30 .def_80)))
(let ((.def_82 (and .def_54 .def_81)))
(let ((.def_83 (and .def_56 .def_82)))
(let ((.def_87 (and .def_83 .def_86)))
(let ((.def_74 (and .PC.0 .PC.1)))
(let ((.def_15 (not .PC.2)))
(let ((.def_75 (and .def_15 .def_74)))
(let ((.def_88 (and .def_75 .def_87)))
(let ((.def_66 (bvadd (_ bv1 32) i__1$main)))
(let ((.def_67 (= i__1$main.next .def_66)))
(let ((.def_64 (not .def_63)))
(let ((.def_68 (and .def_64 .def_67)))
(let ((.def_69 (and .def_26 .def_68)))
(let ((.def_70 (and .def_30 .def_69)))
(let ((.def_71 (and .def_34 .def_70)))
(let ((.def_72 (and .def_54 .def_71)))
(let ((.def_42 (and .def_37 .def_41)))
(let ((.def_73 (and .def_42 .def_72)))
(let ((.def_76 (and .def_73 .def_75)))
(let ((.def_50 (= j__3$main.next i__1$main)))
(let ((.def_49 (bvslt i__1$main n__7$main)))
(let ((.def_51 (and .def_49 .def_50)))
(let ((.def_52 (and .def_30 .def_51)))
(let ((.def_53 (and .def_34 .def_52)))
(let ((.def_55 (and .def_53 .def_54)))
(let ((.def_57 (and .def_55 .def_56)))
(let ((.def_60 (and .def_57 .def_59)))
(let ((.def_46 (and .def_15 .def_45)))
(let ((.def_61 (and .def_46 .def_60)))
(let ((.def_22 (= i__1$main.next (_ bv0 32))))
(let ((.def_19 (= n__7$main.next |__NONDET_INLINE_INIT__8__7$main#0|)))
(let ((.def_23 (and .def_19 .def_22)))
(let ((.def_27 (and .def_23 .def_26)))
(let ((.def_31 (and .def_27 .def_30)))
(let ((.def_35 (and .def_31 .def_34)))
(let ((.def_43 (and .def_35 .def_42)))
(let ((.def_16 (and .def_13 .def_15)))
(let ((.def_44 (and .def_16 .def_43)))
(let ((.def_62 (or .def_44 .def_61)))
(let ((.def_77 (or .def_62 .def_76)))
(let ((.def_89 (or .def_77 .def_88)))
(let ((.def_102 (or .def_89 .def_101)))
(let ((.def_113 (or .def_102 .def_112)))
(let ((.def_125 (or .def_113 .def_124)))
(let ((.def_135 (or .def_125 .def_134)))
(let ((.def_139 (or .def_135 .def_138)))
.def_139))))))))))))))))))))))))))))))))))))))))))))))))))))))))))))))))))))))))))))))))))))))))))))))))))))))))))))))))) (state |.PC.0.next| |.PC.1.next| |.PC.2.next| |j__3$main.next| |__RET__$main.next| |k__5$main.next| |n__7$main.next| |i__1$main.next|))))
(assert (forall ((|.PC.0.next| Bool) (|.PC.1.next| Bool) (|.PC.2.next| Bool) (|__RET__$main.next| (_ BitVec 32)) (|__RET__$main| (_ BitVec 32)) (|j__3$main.next| (_ BitVec 32)) (|j__3$main| (_ BitVec 32)) (|k__5$main.next| (_ BitVec 32)) (|k__5$main| (_ BitVec 32)) (|n__7$main| (_ BitVec 32)) (|n__7$main.next| (_ BitVec 32)) (|i__1$main| (_ BitVec 32)) (|i__1$main.next| (_ BitVec 32)) (|__NONDET_INLINE_INIT__8__7$main#0| (_ BitVec 32)) (|.PC.2| Bool) (|.PC.1| Bool) (|.PC.0| Bool)) (=> (state |.PC.0| |.PC.1| |.PC.2| |j__3$main| |__RET__$main| |k__5$main| |n__7$main| |i__1$main|) (let ((.def_10 (not .PC.0)))
(let ((.def_136 (and .def_10 .PC.1)))
(let ((.def_137 (and .PC.2 .def_136)))
(let ((.def_140 (not .def_137)))
.def_140)))))))
(check-sat)
